p td 120 119
0 1
0 2
0 5
0 7
0 15
0 22
0 24
0 60
0 61
0 110
1 10
1 65
2 3
2 4
2 9
2 11
2 16
2 20
2 26
2 27
2 31
2 34
2 42
2 45
2 59
2 62
2 64
2 73
2 77
2 102
2 108
2 113
2 115
2 119
3 49
3 57
3 58
3 74
5 6
5 8
5 12
5 14
5 17
5 23
5 29
5 51
5 117
6 25
6 70
6 78
6 83
7 18
7 28
8 13
8 21
11 112
14 19
14 95
15 32
15 56
15 71
16 39
16 76
17 33
17 40
17 44
17 54
19 35
19 66
19 82
19 88
19 105
20 92
21 43
21 87
21 111
21 118
22 30
22 48
22 52
22 67
23 41
23 46
33 37
34 36
34 38
35 47
35 90
35 103
39 50
39 53
39 63
39 109
40 93
41 55
43 68
43 75
44 79
44 86
44 89
55 84
58 91
58 96
59 100
62 107
64 106
65 85
66 69
66 98
66 99
66 114
69 72
69 80
69 81
73 104
75 94
80 97
90 101
105 116
